instances/shortest_path/discrete/shortest_path_5_4.mps
* Signature: 0xa1d49c5c4aa7c587
NAME nohadani_5_4
ROWS
 N  OBJ
 E  flow_cons_inner_nodes[0]
 E  flow_cons_inner_nodes[1]
 E  flow_cons_inner_nodes[3]
 E  flow_cons_source
 E  flow_cons_target
 L  primal_lower
 L  mccormick1[0,1]
 L  mccormick1[0,3]
 L  mccormick1[0,4]
 L  mccormick1[1,0]
 L  mccormick1[1,2]
 L  mccormick1[1,3]
 L  mccormick1[1,4]
 L  mccormick1[2,1]
 L  mccormick1[2,3]
 L  mccormick1[3,0]
 L  mccormick1[3,1]
 L  mccormick1[3,2]
 L  mccormick1[3,4]
 L  mccormick1[4,0]
 L  mccormick1[4,1]
 L  mccormick1[4,3]
 L  mccormick2[0,1]
 L  mccormick2[0,3]
 L  mccormick2[0,4]
 L  mccormick2[1,0]
 L  mccormick2[1,2]
 L  mccormick2[1,3]
 L  mccormick2[1,4]
 L  mccormick2[2,1]
 L  mccormick2[2,3]
 L  mccormick2[3,0]
 L  mccormick2[3,1]
 L  mccormick2[3,2]
 L  mccormick2[3,4]
 L  mccormick2[4,0]
 L  mccormick2[4,1]
 L  mccormick2[4,3]
 G  mccormick3[0,1]
 G  mccormick3[0,3]
 G  mccormick3[0,4]
 G  mccormick3[1,0]
 G  mccormick3[1,2]
 G  mccormick3[1,3]
 G  mccormick3[1,4]
 G  mccormick3[2,1]
 G  mccormick3[2,3]
 G  mccormick3[3,0]
 G  mccormick3[3,1]
 G  mccormick3[3,2]
 G  mccormick3[3,4]
 G  mccormick3[4,0]
 G  mccormick3[4,1]
 G  mccormick3[4,3]
COLUMNS
    MARKER    'MARKER'                 'INTORG'
    y[0,1]    OBJ       1.1401754250991379e+01
    y[0,1]    flow_cons_inner_nodes[0]  -1
    y[0,1]    flow_cons_inner_nodes[1]  1
    y[0,1]    mccormick2[0,1]  -1
    y[0,1]    mccormick3[0,1]  -1
    y[0,3]    OBJ       7.9025312400521386e+01
    y[0,3]    flow_cons_inner_nodes[0]  -1
    y[0,3]    flow_cons_inner_nodes[3]  1
    y[0,3]    mccormick2[0,3]  -1
    y[0,3]    mccormick3[0,3]  -1
    y[0,4]    OBJ       7.5325958341065927e+01
    y[0,4]    flow_cons_inner_nodes[0]  -1
    y[0,4]    flow_cons_target  1
    y[0,4]    mccormick2[0,4]  -1
    y[0,4]    mccormick3[0,4]  -1
    y[1,0]    OBJ       1.1401754250991379e+01
    y[1,0]    flow_cons_inner_nodes[0]  1
    y[1,0]    flow_cons_inner_nodes[1]  -1
    y[1,0]    mccormick2[1,0]  -1
    y[1,0]    mccormick3[1,0]  -1
    y[1,2]    OBJ       7.8644770964127048e+01
    y[1,2]    flow_cons_inner_nodes[1]  -1
    y[1,2]    flow_cons_source  -1
    y[1,2]    mccormick2[1,2]  -1
    y[1,2]    mccormick3[1,2]  -1
    y[1,3]    OBJ       68.6804193347711
    y[1,3]    flow_cons_inner_nodes[1]  -1
    y[1,3]    flow_cons_inner_nodes[3]  1
    y[1,3]    mccormick2[1,3]  -1
    y[1,3]    mccormick3[1,3]  -1
    y[1,4]    OBJ       7.4215901261117892e+01
    y[1,4]    flow_cons_inner_nodes[1]  -1
    y[1,4]    flow_cons_target  1
    y[1,4]    mccormick2[1,4]  -1
    y[1,4]    mccormick3[1,4]  -1
    y[2,1]    OBJ       7.8644770964127048e+01
    y[2,1]    flow_cons_inner_nodes[1]  1
    y[2,1]    flow_cons_source  1
    y[2,1]    mccormick2[2,1]  -1
    y[2,1]    mccormick3[2,1]  -1
    y[2,3]    OBJ       3.9698866482558415e+01
    y[2,3]    flow_cons_inner_nodes[3]  1
    y[2,3]    flow_cons_source  1
    y[2,3]    mccormick2[2,3]  -1
    y[2,3]    mccormick3[2,3]  -1
    y[3,0]    OBJ       7.9025312400521386e+01
    y[3,0]    flow_cons_inner_nodes[0]  1
    y[3,0]    flow_cons_inner_nodes[3]  -1
    y[3,0]    mccormick2[3,0]  -1
    y[3,0]    mccormick3[3,0]  -1
    y[3,1]    OBJ       68.6804193347711
    y[3,1]    flow_cons_inner_nodes[1]  1
    y[3,1]    flow_cons_inner_nodes[3]  -1
    y[3,1]    mccormick2[3,1]  -1
    y[3,1]    mccormick3[3,1]  -1
    y[3,2]    OBJ       3.9698866482558415e+01
    y[3,2]    flow_cons_inner_nodes[3]  -1
    y[3,2]    flow_cons_source  -1
    y[3,2]    mccormick2[3,2]  -1
    y[3,2]    mccormick3[3,2]  -1
    y[3,4]    OBJ       73.7360156233031
    y[3,4]    flow_cons_inner_nodes[3]  -1
    y[3,4]    flow_cons_target  1
    y[3,4]    mccormick2[3,4]  -1
    y[3,4]    mccormick3[3,4]  -1
    y[4,0]    OBJ       7.5325958341065927e+01
    y[4,0]    flow_cons_inner_nodes[0]  1
    y[4,0]    flow_cons_target  -1
    y[4,0]    mccormick2[4,0]  -1
    y[4,0]    mccormick3[4,0]  -1
    y[4,1]    OBJ       7.4215901261117892e+01
    y[4,1]    flow_cons_inner_nodes[1]  1
    y[4,1]    flow_cons_target  -1
    y[4,1]    mccormick2[4,1]  -1
    y[4,1]    mccormick3[4,1]  -1
    y[4,3]    OBJ       73.7360156233031
    y[4,3]    flow_cons_inner_nodes[3]  1
    y[4,3]    flow_cons_target  -1
    y[4,3]    mccormick2[4,3]  -1
    y[4,3]    mccormick3[4,3]  -1
    x[0,1]    OBJ       1
    x[0,1]    primal_lower  1.2601095903061696e+00
    x[0,3]    OBJ       1
    x[0,3]    primal_lower  3.2843424353850781e-01
    x[0,4]    OBJ       1
    x[0,4]    primal_lower  1.6959944643171116e+00
    x[1,0]    OBJ       1
    x[1,0]    primal_lower  4.0623424846876608e+00
    x[1,2]    OBJ       1
    x[1,2]    primal_lower  3.8924612282335374e+00
    x[1,3]    OBJ       1
    x[1,3]    primal_lower  3.7754546648078877e+00
    x[1,4]    OBJ       1
    x[1,4]    primal_lower  6.04154867610114
    x[2,1]    OBJ       1
    x[2,1]    primal_lower  1.3774376821845240e+00
    x[2,3]    OBJ       1
    x[2,3]    primal_lower  1.3375509388299744e+00
    x[3,0]    OBJ       1
    x[3,0]    primal_lower  5.1736889458160213e+00
    x[3,1]    OBJ       1
    x[3,1]    primal_lower  4.19041260136407
    x[3,2]    OBJ       1
    x[3,2]    primal_lower  3.7790480019794472e+00
    x[3,4]    OBJ       1
    x[3,4]    primal_lower  1.8055917732009241e+00
    x[4,0]    OBJ       1
    x[4,0]    primal_lower  5.22234974476119
    x[4,1]    OBJ       1
    x[4,1]    primal_lower  3.2468709653473913e+00
    x[4,3]    OBJ       1
    x[4,3]    primal_lower  8.0433851889227137e-01
    u[0,1]    primal_lower  76
    u[0,1]    mccormick1[0,1]  -1
    u[0,1]    mccormick3[0,1]  -1
    u[0,3]    primal_lower  69
    u[0,3]    mccormick1[0,3]  -1
    u[0,3]    mccormick3[0,3]  -1
    u[0,4]    primal_lower  99
    u[0,4]    mccormick1[0,4]  -1
    u[0,4]    mccormick3[0,4]  -1
    u[1,0]    primal_lower  88
    u[1,0]    mccormick1[1,0]  -1
    u[1,0]    mccormick3[1,0]  -1
    u[1,2]    primal_lower  85
    u[1,2]    mccormick1[1,2]  -1
    u[1,2]    mccormick3[1,2]  -1
    u[1,3]    primal_lower  50
    u[1,3]    mccormick1[1,3]  -1
    u[1,3]    mccormick3[1,3]  -1
    u[1,4]    primal_lower  14
    u[1,4]    mccormick1[1,4]  -1
    u[1,4]    mccormick3[1,4]  -1
    u[2,1]    primal_lower  12
    u[2,1]    mccormick1[2,1]  -1
    u[2,1]    mccormick3[2,1]  -1
    u[2,3]    primal_lower  62
    u[2,3]    mccormick1[2,3]  -1
    u[2,3]    mccormick3[2,3]  -1
    u[3,0]    primal_lower  11
    u[3,0]    mccormick1[3,0]  -1
    u[3,0]    mccormick3[3,0]  -1
    u[3,1]    primal_lower  76
    u[3,1]    mccormick1[3,1]  -1
    u[3,1]    mccormick3[3,1]  -1
    u[3,2]    primal_lower  16
    u[3,2]    mccormick1[3,2]  -1
    u[3,2]    mccormick3[3,2]  -1
    u[3,4]    primal_lower  85
    u[3,4]    mccormick1[3,4]  -1
    u[3,4]    mccormick3[3,4]  -1
    u[4,0]    primal_lower  77
    u[4,0]    mccormick1[4,0]  -1
    u[4,0]    mccormick3[4,0]  -1
    u[4,1]    primal_lower  69
    u[4,1]    mccormick1[4,1]  -1
    u[4,1]    mccormick3[4,1]  -1
    u[4,3]    primal_lower  93
    u[4,3]    mccormick1[4,3]  -1
    u[4,3]    mccormick3[4,3]  -1
    r[0,1]    OBJ       1.1401754250991381e+00
    r[0,1]    mccormick1[0,1]  1
    r[0,1]    mccormick2[0,1]  1
    r[0,1]    mccormick3[0,1]  1
    r[0,3]    OBJ       7.9025312400521388e+00
    r[0,3]    mccormick1[0,3]  1
    r[0,3]    mccormick2[0,3]  1
    r[0,3]    mccormick3[0,3]  1
    r[0,4]    OBJ       7.5325958341065933e+00
    r[0,4]    mccormick1[0,4]  1
    r[0,4]    mccormick2[0,4]  1
    r[0,4]    mccormick3[0,4]  1
    r[1,0]    OBJ       1.1401754250991381e+00
    r[1,0]    mccormick1[1,0]  1
    r[1,0]    mccormick2[1,0]  1
    r[1,0]    mccormick3[1,0]  1
    r[1,2]    OBJ       7.8644770964127053e+00
    r[1,2]    mccormick1[1,2]  1
    r[1,2]    mccormick2[1,2]  1
    r[1,2]    mccormick3[1,2]  1
    r[1,3]    OBJ       6.8680419334771106e+00
    r[1,3]    mccormick1[1,3]  1
    r[1,3]    mccormick2[1,3]  1
    r[1,3]    mccormick3[1,3]  1
    r[1,4]    OBJ       7.42159012611179
    r[1,4]    mccormick1[1,4]  1
    r[1,4]    mccormick2[1,4]  1
    r[1,4]    mccormick3[1,4]  1
    r[2,1]    OBJ       7.8644770964127053e+00
    r[2,1]    mccormick1[2,1]  1
    r[2,1]    mccormick2[2,1]  1
    r[2,1]    mccormick3[2,1]  1
    r[2,3]    OBJ       3.9698866482558417e+00
    r[2,3]    mccormick1[2,3]  1
    r[2,3]    mccormick2[2,3]  1
    r[2,3]    mccormick3[2,3]  1
    r[3,0]    OBJ       7.9025312400521388e+00
    r[3,0]    mccormick1[3,0]  1
    r[3,0]    mccormick2[3,0]  1
    r[3,0]    mccormick3[3,0]  1
    r[3,1]    OBJ       6.8680419334771106e+00
    r[3,1]    mccormick1[3,1]  1
    r[3,1]    mccormick2[3,1]  1
    r[3,1]    mccormick3[3,1]  1
    r[3,2]    OBJ       3.9698866482558417e+00
    r[3,2]    mccormick1[3,2]  1
    r[3,2]    mccormick2[3,2]  1
    r[3,2]    mccormick3[3,2]  1
    r[3,4]    OBJ       7.3736015623303111e+00
    r[3,4]    mccormick1[3,4]  1
    r[3,4]    mccormick2[3,4]  1
    r[3,4]    mccormick3[3,4]  1
    r[4,0]    OBJ       7.5325958341065933e+00
    r[4,0]    mccormick1[4,0]  1
    r[4,0]    mccormick2[4,0]  1
    r[4,0]    mccormick3[4,0]  1
    r[4,1]    OBJ       7.42159012611179
    r[4,1]    mccormick1[4,1]  1
    r[4,1]    mccormick2[4,1]  1
    r[4,1]    mccormick3[4,1]  1
    r[4,3]    OBJ       7.3736015623303111e+00
    r[4,3]    mccormick1[4,3]  1
    r[4,3]    mccormick2[4,3]  1
    r[4,3]    mccormick3[4,3]  1
    MARKER    'MARKER'                 'INTEND'
RHS
    RHS1      flow_cons_source  1
    RHS1      flow_cons_target  1
    RHS1      primal_lower  99
    RHS1      mccormick3[0,1]  -1
    RHS1      mccormick3[0,3]  -1
    RHS1      mccormick3[0,4]  -1
    RHS1      mccormick3[1,0]  -1
    RHS1      mccormick3[1,2]  -1
    RHS1      mccormick3[1,3]  -1
    RHS1      mccormick3[1,4]  -1
    RHS1      mccormick3[2,1]  -1
    RHS1      mccormick3[2,3]  -1
    RHS1      mccormick3[3,0]  -1
    RHS1      mccormick3[3,1]  -1
    RHS1      mccormick3[3,2]  -1
    RHS1      mccormick3[3,4]  -1
    RHS1      mccormick3[4,0]  -1
    RHS1      mccormick3[4,1]  -1
    RHS1      mccormick3[4,3]  -1
BOUNDS
 BV BND1      y[0,1]  
 BV BND1      y[0,3]  
 BV BND1      y[0,4]  
 BV BND1      y[1,0]  
 BV BND1      y[1,2]  
 BV BND1      y[1,3]  
 BV BND1      y[1,4]  
 BV BND1      y[2,1]  
 BV BND1      y[2,3]  
 BV BND1      y[3,0]  
 BV BND1      y[3,1]  
 BV BND1      y[3,2]  
 BV BND1      y[3,4]  
 BV BND1      y[4,0]  
 BV BND1      y[4,1]  
 BV BND1      y[4,3]  
 BV BND1      x[0,1]  
 BV BND1      x[0,3]  
 BV BND1      x[0,4]  
 BV BND1      x[1,0]  
 BV BND1      x[1,2]  
 BV BND1      x[1,3]  
 BV BND1      x[1,4]  
 BV BND1      x[2,1]  
 BV BND1      x[2,3]  
 BV BND1      x[3,0]  
 BV BND1      x[3,1]  
 BV BND1      x[3,2]  
 BV BND1      x[3,4]  
 BV BND1      x[4,0]  
 BV BND1      x[4,1]  
 BV BND1      x[4,3]  
 BV BND1      u[0,1]  
 BV BND1      u[0,3]  
 BV BND1      u[0,4]  
 BV BND1      u[1,0]  
 BV BND1      u[1,2]  
 BV BND1      u[1,3]  
 BV BND1      u[1,4]  
 BV BND1      u[2,1]  
 BV BND1      u[2,3]  
 BV BND1      u[3,0]  
 BV BND1      u[3,1]  
 BV BND1      u[3,2]  
 BV BND1      u[3,4]  
 BV BND1      u[4,0]  
 BV BND1      u[4,1]  
 BV BND1      u[4,3]  
 BV BND1      r[0,1]  
 BV BND1      r[0,3]  
 BV BND1      r[0,4]  
 BV BND1      r[1,0]  
 BV BND1      r[1,2]  
 BV BND1      r[1,3]  
 BV BND1      r[1,4]  
 BV BND1      r[2,1]  
 BV BND1      r[2,3]  
 BV BND1      r[3,0]  
 BV BND1      r[3,1]  
 BV BND1      r[3,2]  
 BV BND1      r[3,4]  
 BV BND1      r[4,0]  
 BV BND1      r[4,1]  
 BV BND1      r[4,3]  
ENDATA
