instances/shortest_path/discrete/shortest_path_5_4.kp
6271
99

[1.2601095903061696 0.3284342435385078 1.6959944643171116 4.062342484687661 3.8924612282335374 3.7754546648078877 6.04154867610114 1.377437682184524 1.3375509388299744 5.173688945816021 4.19041260136407 3.7790480019794472 1.8055917732009241 5.22234974476119 3.2468709653473913 0.8043385188922714]

[76 69 99 88 85 50 14 12 62 11 76 16 85 77 69 93]
